(declare-fun cmp255.i.i_31_101 () (_ BitVec 1))
(declare-fun narrow_31_103 () (_ BitVec 1))
(declare-fun cmp251.not.i.i_31_100 () (_ BitVec 1))
(declare-fun i143.i.i_31_99 () (_ BitVec 64))
(declare-fun i133.i.i_31_96 () (_ BitVec 64))
(declare-fun i141.i.i_31_98 () (_ BitVec 64))
(declare-fun i135.i.i_31_97 () (_ BitVec 64))
(declare-fun src_reg_31_25 () (_ BitVec 64))
(declare-fun src_reg_31_24 () (_ BitVec 64))
(declare-fun dst_reg_31_7 () (_ BitVec 64))
(declare-fun dst_reg_31_6 () (_ BitVec 64))
(declare-fun i30.i32_31_95 () (_ BitVec 32))
(declare-fun src_reg_31_29 () (_ BitVec 32))
(declare-fun i29.i29_31_94 () (_ BitVec 32))
(declare-fun src_reg_31_28 () (_ BitVec 32))
(declare-fun i28.i26_31_93 () (_ BitVec 32))
(declare-fun src_reg_31_27 () (_ BitVec 32))
(declare-fun i27.i23_31_92 () (_ BitVec 32))
(declare-fun src_reg_31_26 () (_ BitVec 32))
(declare-fun i26.i20_31_91 () (_ BitVec 64))
(declare-fun i25.i17_31_90 () (_ BitVec 64))
(declare-fun i24.i14_31_89 () (_ BitVec 64))
(declare-fun src_reg_31_23 () (_ BitVec 64))
(declare-fun i23.i11_31_88 () (_ BitVec 64))
(declare-fun src_reg_31_22 () (_ BitVec 64))
(declare-fun i22.i8_31_87 () (_ BitVec 64))
(declare-fun src_reg_31_21 () (_ BitVec 64))
(declare-fun i21.i5_31_86 () (_ BitVec 64))
(declare-fun src_reg_31_20 () (_ BitVec 64))
(declare-fun i.i2_31_85 () (_ BitVec 32))
(declare-fun i30.i_31_84 () (_ BitVec 32))
(declare-fun dst_reg_31_11 () (_ BitVec 32))
(declare-fun i29.i_31_83 () (_ BitVec 32))
(declare-fun dst_reg_31_10 () (_ BitVec 32))
(declare-fun i28.i_31_82 () (_ BitVec 32))
(declare-fun dst_reg_31_9 () (_ BitVec 32))
(declare-fun i27.i_31_81 () (_ BitVec 32))
(declare-fun dst_reg_31_8 () (_ BitVec 32))
(declare-fun i26.i_31_80 () (_ BitVec 64))
(declare-fun i25.i_31_79 () (_ BitVec 64))
(declare-fun i24.i_31_78 () (_ BitVec 64))
(declare-fun dst_reg_31_5 () (_ BitVec 64))
(declare-fun i23.i_31_77 () (_ BitVec 64))
(declare-fun dst_reg_31_4 () (_ BitVec 64))
(declare-fun i22.i_31_76 () (_ BitVec 64))
(declare-fun dst_reg_31_3 () (_ BitVec 64))
(declare-fun i21.i_31_75 () (_ BitVec 64))
(declare-fun dst_reg_31_2 () (_ BitVec 64))
(declare-fun i.i_31_74 () (_ BitVec 32))
(declare-fun other_branch_src_reg_31_71 () (_ BitVec 8))
(declare-fun other_branch_src_reg_31_70 () (_ BitVec 32))
(declare-fun other_branch_src_reg_31_69 () (_ BitVec 32))
(declare-fun other_branch_src_reg_31_68 () (_ BitVec 32))
(declare-fun other_branch_src_reg_31_67 () (_ BitVec 32))
(declare-fun other_branch_src_reg_31_66 () (_ BitVec 32))
(declare-fun other_branch_src_reg_31_65 () (_ BitVec 32))
(declare-fun other_branch_src_reg_31_64 () (_ BitVec 32))
(declare-fun other_branch_src_reg_31_63 () (_ BitVec 32))
(declare-fun other_branch_src_reg_31_62 () (_ BitVec 32))
(declare-fun other_branch_src_reg_31_61 () (_ BitVec 64))
(declare-fun other_branch_src_reg_31_60 () (_ BitVec 64))
(declare-fun other_branch_src_reg_31_59 () (_ BitVec 64))
(declare-fun other_branch_src_reg_31_58 () (_ BitVec 64))
(declare-fun other_branch_src_reg_31_57 () (_ BitVec 64))
(declare-fun other_branch_src_reg_31_56 () (_ BitVec 64))
(declare-fun other_branch_src_reg_31_55 () (_ BitVec 32))
(declare-fun other_branch_src_reg_31_54 () (_ BitVec 32))
(declare-fun other_branch_dst_reg_31_53 () (_ BitVec 8))
(declare-fun other_branch_dst_reg_31_52 () (_ BitVec 32))
(declare-fun other_branch_dst_reg_31_51 () (_ BitVec 32))
(declare-fun other_branch_dst_reg_31_50 () (_ BitVec 32))
(declare-fun other_branch_dst_reg_31_49 () (_ BitVec 32))
(declare-fun other_branch_dst_reg_31_48 () (_ BitVec 32))
(declare-fun other_branch_dst_reg_31_47 () (_ BitVec 32))
(declare-fun other_branch_dst_reg_31_46 () (_ BitVec 32))
(declare-fun other_branch_dst_reg_31_45 () (_ BitVec 32))
(declare-fun other_branch_dst_reg_31_44 () (_ BitVec 32))
(declare-fun other_branch_dst_reg_31_43 () (_ BitVec 64))
(declare-fun other_branch_dst_reg_31_42 () (_ BitVec 64))
(declare-fun other_branch_dst_reg_31_41 () (_ BitVec 64))
(declare-fun other_branch_dst_reg_31_40 () (_ BitVec 64))
(declare-fun other_branch_dst_reg_31_39 () (_ BitVec 64))
(declare-fun other_branch_dst_reg_31_38 () (_ BitVec 64))
(declare-fun other_branch_dst_reg_31_37 () (_ BitVec 32))
(declare-fun other_branch_dst_reg_31_36 () (_ BitVec 32))
(declare-fun src_reg_31_35 () (_ BitVec 8))
(declare-fun src_reg_31_34 () (_ BitVec 32))
(declare-fun src_reg_31_33 () (_ BitVec 32))
(declare-fun src_reg_31_32 () (_ BitVec 32))
(declare-fun src_reg_31_31 () (_ BitVec 32))
(declare-fun src_reg_31_30 () (_ BitVec 32))
(declare-fun src_reg_31_19 () (_ BitVec 32))
(declare-fun src_reg_31_18 () (_ BitVec 32))
(declare-fun dst_reg_31_17 () (_ BitVec 8))
(declare-fun dst_reg_31_16 () (_ BitVec 32))
(declare-fun dst_reg_31_15 () (_ BitVec 32))
(declare-fun dst_reg_31_14 () (_ BitVec 32))
(declare-fun dst_reg_31_13 () (_ BitVec 32))
(declare-fun dst_reg_31_12 () (_ BitVec 32))
(declare-fun dst_reg_31_1 () (_ BitVec 32))
(declare-fun dst_reg_31_0 () (_ BitVec 32))
(declare-fun cmp.not.i_31_106 () (_ BitVec 1))
(declare-fun i.i35_31_104 () (_ BitVec 32))
(declare-fun cmp2.not.i_31_109 () (_ BitVec 1))
(declare-fun i1.i_31_107 () (_ BitVec 32))
(declare-fun i353.i493.i_31_124 () (_ BitVec 64))
(declare-fun cond300.i495.i_31_126 () (_ BitVec 64))
(declare-fun i352.i491.i_31_123 () (_ BitVec 64))
(declare-fun cmp295.i494.i_31_125 () (_ BitVec 1))
(declare-fun i351.i487.i_31_120 () (_ BitVec 64))
(declare-fun cond290.i489.i_31_122 () (_ BitVec 64))
(declare-fun i350.i485.i_31_119 () (_ BitVec 64))
(declare-fun cmp285.i488.i_31_121 () (_ BitVec 1))
(declare-fun i361.i.i_31_116 () (_ BitVec 64))
(declare-fun cond347.i.i_31_118 () (_ BitVec 64))
(declare-fun add339.i.i_31_115 () (_ BitVec 64))
(declare-fun cmp342.i.i_31_117 () (_ BitVec 1))
(declare-fun sub329.i.i_31_111 () (_ BitVec 64))
(declare-fun cond336.i.i_31_113 () (_ BitVec 64))
(declare-fun cmp331.i.i_31_112 () (_ BitVec 1))
(declare-fun other_branch_src_reg_31_270 () (_ BitVec 8))
(declare-fun other_branch_src_reg_31_198 () (_ BitVec 8))
(declare-fun other_branch_src_reg_31_269 () (_ BitVec 32))
(declare-fun other_branch_src_reg_31_197 () (_ BitVec 32))
(declare-fun other_branch_src_reg_31_268 () (_ BitVec 32))
(declare-fun other_branch_src_reg_31_196 () (_ BitVec 32))
(declare-fun other_branch_src_reg_31_267 () (_ BitVec 32))
(declare-fun other_branch_src_reg_31_195 () (_ BitVec 32))
(declare-fun other_branch_src_reg_31_266 () (_ BitVec 32))
(declare-fun other_branch_src_reg_31_194 () (_ BitVec 32))
(declare-fun other_branch_src_reg_31_265 () (_ BitVec 32))
(declare-fun other_branch_src_reg_31_193 () (_ BitVec 32))
(declare-fun other_branch_src_reg_31_264 () (_ BitVec 32))
(declare-fun other_branch_src_reg_31_192 () (_ BitVec 32))
(declare-fun other_branch_src_reg_31_263 () (_ BitVec 32))
(declare-fun other_branch_src_reg_31_191 () (_ BitVec 32))
(declare-fun other_branch_src_reg_31_262 () (_ BitVec 32))
(declare-fun other_branch_src_reg_31_190 () (_ BitVec 32))
(declare-fun other_branch_src_reg_31_261 () (_ BitVec 32))
(declare-fun other_branch_src_reg_31_189 () (_ BitVec 32))
(declare-fun other_branch_src_reg_31_260 () (_ BitVec 64))
(declare-fun other_branch_src_reg_31_188 () (_ BitVec 64))
(declare-fun other_branch_src_reg_31_259 () (_ BitVec 64))
(declare-fun other_branch_src_reg_31_187 () (_ BitVec 64))
(declare-fun other_branch_src_reg_31_258 () (_ BitVec 64))
(declare-fun other_branch_src_reg_31_186 () (_ BitVec 64))
(declare-fun other_branch_src_reg_31_257 () (_ BitVec 64))
(declare-fun other_branch_src_reg_31_185 () (_ BitVec 64))
(declare-fun other_branch_src_reg_31_256 () (_ BitVec 64))
(declare-fun other_branch_src_reg_31_184 () (_ BitVec 64))
(declare-fun other_branch_src_reg_31_255 () (_ BitVec 64))
(declare-fun other_branch_src_reg_31_183 () (_ BitVec 64))
(declare-fun other_branch_src_reg_31_254 () (_ BitVec 32))
(declare-fun other_branch_src_reg_31_182 () (_ BitVec 32))
(declare-fun other_branch_src_reg_31_253 () (_ BitVec 32))
(declare-fun other_branch_src_reg_31_181 () (_ BitVec 32))
(declare-fun other_branch_dst_reg_31_252 () (_ BitVec 8))
(declare-fun other_branch_dst_reg_31_180 () (_ BitVec 8))
(declare-fun other_branch_dst_reg_31_251 () (_ BitVec 32))
(declare-fun other_branch_dst_reg_31_179 () (_ BitVec 32))
(declare-fun other_branch_dst_reg_31_250 () (_ BitVec 32))
(declare-fun other_branch_dst_reg_31_178 () (_ BitVec 32))
(declare-fun other_branch_dst_reg_31_249 () (_ BitVec 32))
(declare-fun other_branch_dst_reg_31_177 () (_ BitVec 32))
(declare-fun other_branch_dst_reg_31_248 () (_ BitVec 32))
(declare-fun other_branch_dst_reg_31_176 () (_ BitVec 32))
(declare-fun other_branch_dst_reg_31_247 () (_ BitVec 32))
(declare-fun other_branch_dst_reg_31_175 () (_ BitVec 32))
(declare-fun other_branch_dst_reg_31_246 () (_ BitVec 32))
(declare-fun other_branch_dst_reg_31_174 () (_ BitVec 32))
(declare-fun other_branch_dst_reg_31_245 () (_ BitVec 32))
(declare-fun other_branch_dst_reg_31_173 () (_ BitVec 32))
(declare-fun other_branch_dst_reg_31_244 () (_ BitVec 32))
(declare-fun other_branch_dst_reg_31_172 () (_ BitVec 32))
(declare-fun other_branch_dst_reg_31_243 () (_ BitVec 32))
(declare-fun other_branch_dst_reg_31_171 () (_ BitVec 32))
(declare-fun other_branch_dst_reg_31_242 () (_ BitVec 64))
(declare-fun other_branch_dst_reg_31_170 () (_ BitVec 64))
(declare-fun other_branch_dst_reg_31_241 () (_ BitVec 64))
(declare-fun other_branch_dst_reg_31_169 () (_ BitVec 64))
(declare-fun other_branch_dst_reg_31_240 () (_ BitVec 64))
(declare-fun other_branch_dst_reg_31_168 () (_ BitVec 64))
(declare-fun other_branch_dst_reg_31_239 () (_ BitVec 64))
(declare-fun other_branch_dst_reg_31_167 () (_ BitVec 64))
(declare-fun other_branch_dst_reg_31_238 () (_ BitVec 64))
(declare-fun other_branch_dst_reg_31_166 () (_ BitVec 64))
(declare-fun other_branch_dst_reg_31_237 () (_ BitVec 64))
(declare-fun other_branch_dst_reg_31_165 () (_ BitVec 64))
(declare-fun other_branch_dst_reg_31_236 () (_ BitVec 32))
(declare-fun other_branch_dst_reg_31_164 () (_ BitVec 32))
(declare-fun other_branch_dst_reg_31_235 () (_ BitVec 32))
(declare-fun other_branch_dst_reg_31_163 () (_ BitVec 32))
(declare-fun src_reg_31_234 () (_ BitVec 8))
(declare-fun src_reg_31_162 () (_ BitVec 8))
(declare-fun src_reg_31_233 () (_ BitVec 32))
(declare-fun src_reg_31_161 () (_ BitVec 32))
(declare-fun src_reg_31_232 () (_ BitVec 32))
(declare-fun src_reg_31_160 () (_ BitVec 32))
(declare-fun src_reg_31_231 () (_ BitVec 32))
(declare-fun src_reg_31_159 () (_ BitVec 32))
(declare-fun src_reg_31_230 () (_ BitVec 32))
(declare-fun src_reg_31_158 () (_ BitVec 32))
(declare-fun src_reg_31_229 () (_ BitVec 32))
(declare-fun src_reg_31_157 () (_ BitVec 32))
(declare-fun src_reg_31_228 () (_ BitVec 32))
(declare-fun src_reg_31_156 () (_ BitVec 32))
(declare-fun src_reg_31_227 () (_ BitVec 32))
(declare-fun src_reg_31_155 () (_ BitVec 32))
(declare-fun src_reg_31_226 () (_ BitVec 32))
(declare-fun src_reg_31_154 () (_ BitVec 32))
(declare-fun src_reg_31_225 () (_ BitVec 32))
(declare-fun src_reg_31_153 () (_ BitVec 32))
(declare-fun src_reg_31_224 () (_ BitVec 64))
(declare-fun src_reg_31_152 () (_ BitVec 64))
(declare-fun src_reg_31_223 () (_ BitVec 64))
(declare-fun src_reg_31_151 () (_ BitVec 64))
(declare-fun src_reg_31_222 () (_ BitVec 64))
(declare-fun src_reg_31_150 () (_ BitVec 64))
(declare-fun src_reg_31_221 () (_ BitVec 64))
(declare-fun src_reg_31_149 () (_ BitVec 64))
(declare-fun src_reg_31_220 () (_ BitVec 64))
(declare-fun src_reg_31_148 () (_ BitVec 64))
(declare-fun src_reg_31_219 () (_ BitVec 64))
(declare-fun src_reg_31_147 () (_ BitVec 64))
(declare-fun src_reg_31_218 () (_ BitVec 32))
(declare-fun src_reg_31_146 () (_ BitVec 32))
(declare-fun src_reg_31_217 () (_ BitVec 32))
(declare-fun src_reg_31_145 () (_ BitVec 32))
(declare-fun dst_reg_31_216 () (_ BitVec 8))
(declare-fun dst_reg_31_144 () (_ BitVec 8))
(declare-fun dst_reg_31_215 () (_ BitVec 32))
(declare-fun dst_reg_31_143 () (_ BitVec 32))
(declare-fun dst_reg_31_214 () (_ BitVec 32))
(declare-fun dst_reg_31_142 () (_ BitVec 32))
(declare-fun dst_reg_31_213 () (_ BitVec 32))
(declare-fun dst_reg_31_141 () (_ BitVec 32))
(declare-fun dst_reg_31_212 () (_ BitVec 32))
(declare-fun dst_reg_31_140 () (_ BitVec 32))
(declare-fun dst_reg_31_211 () (_ BitVec 32))
(declare-fun dst_reg_31_139 () (_ BitVec 32))
(declare-fun dst_reg_31_210 () (_ BitVec 32))
(declare-fun dst_reg_31_138 () (_ BitVec 32))
(declare-fun dst_reg_31_209 () (_ BitVec 32))
(declare-fun dst_reg_31_137 () (_ BitVec 32))
(declare-fun dst_reg_31_208 () (_ BitVec 32))
(declare-fun dst_reg_31_136 () (_ BitVec 32))
(declare-fun dst_reg_31_207 () (_ BitVec 32))
(declare-fun dst_reg_31_135 () (_ BitVec 32))
(declare-fun dst_reg_31_206 () (_ BitVec 64))
(declare-fun dst_reg_31_134 () (_ BitVec 64))
(declare-fun dst_reg_31_205 () (_ BitVec 64))
(declare-fun dst_reg_31_133 () (_ BitVec 64))
(declare-fun dst_reg_31_204 () (_ BitVec 64))
(declare-fun dst_reg_31_132 () (_ BitVec 64))
(declare-fun dst_reg_31_203 () (_ BitVec 64))
(declare-fun dst_reg_31_131 () (_ BitVec 64))
(declare-fun dst_reg_31_202 () (_ BitVec 64))
(declare-fun dst_reg_31_130 () (_ BitVec 64))
(declare-fun dst_reg_31_201 () (_ BitVec 64))
(declare-fun dst_reg_31_129 () (_ BitVec 64))
(declare-fun dst_reg_31_200 () (_ BitVec 32))
(declare-fun dst_reg_31_128 () (_ BitVec 32))
(declare-fun dst_reg_31_199 () (_ BitVec 32))
(declare-fun dst_reg_31_127 () (_ BitVec 32))
(assert (let ((a!1 (and (= cmp2.not.i_31_109 #b1)
                (and (= cmp.not.i_31_106 #b1) (= narrow_31_103 #b0))))
      (a!2 (and (= cmp2.not.i_31_109 #b0)
                (and (= cmp.not.i_31_106 #b1) (= narrow_31_103 #b0))))
      (a!3 (and (= i.i2_31_85 other_branch_src_reg_31_181)
                (= other_branch_src_reg_31_55 other_branch_src_reg_31_182)
                (= i21.i5_31_86 other_branch_src_reg_31_183)
                (= i22.i8_31_87 other_branch_src_reg_31_184)
                (= i23.i11_31_88 other_branch_src_reg_31_185)
                (= i24.i14_31_89 other_branch_src_reg_31_186)
                (= i25.i17_31_90 other_branch_src_reg_31_187)
                (= i26.i20_31_91 other_branch_src_reg_31_188)
                (= i27.i23_31_92 other_branch_src_reg_31_189)
                (= i28.i26_31_93 other_branch_src_reg_31_190)
                (= i29.i29_31_94 other_branch_src_reg_31_191)
                (= i30.i32_31_95 other_branch_src_reg_31_192)
                (= other_branch_src_reg_31_66 other_branch_src_reg_31_193)
                (= other_branch_src_reg_31_67 other_branch_src_reg_31_194)
                (= other_branch_src_reg_31_68 other_branch_src_reg_31_195)
                (= other_branch_src_reg_31_69 other_branch_src_reg_31_196)
                (= other_branch_src_reg_31_70 other_branch_src_reg_31_197)
                (= other_branch_src_reg_31_71 other_branch_src_reg_31_198)
                (= i.i_31_74 other_branch_dst_reg_31_163)
                (= other_branch_dst_reg_31_37 other_branch_dst_reg_31_164)
                (= i21.i_31_75 other_branch_dst_reg_31_165)
                (= i22.i_31_76 other_branch_dst_reg_31_166)
                (= i23.i_31_77 other_branch_dst_reg_31_167)
                (= i24.i_31_78 other_branch_dst_reg_31_168)
                (= i25.i_31_79 other_branch_dst_reg_31_169)
                (= i26.i_31_80 other_branch_dst_reg_31_170)
                (= i27.i_31_81 other_branch_dst_reg_31_171)
                (= i28.i_31_82 other_branch_dst_reg_31_172)
                (= i29.i_31_83 other_branch_dst_reg_31_173)
                (= i30.i_31_84 other_branch_dst_reg_31_174)
                (= other_branch_dst_reg_31_48 other_branch_dst_reg_31_175)
                (= other_branch_dst_reg_31_49 other_branch_dst_reg_31_176)
                (= other_branch_dst_reg_31_50 other_branch_dst_reg_31_177)
                (= other_branch_dst_reg_31_51 other_branch_dst_reg_31_178)
                (= other_branch_dst_reg_31_52 other_branch_dst_reg_31_179)
                (= other_branch_dst_reg_31_53 other_branch_dst_reg_31_180)
                (= #x00000001 src_reg_31_145)
                (= src_reg_31_19 src_reg_31_146)
                (= src_reg_31_20 src_reg_31_147)
                (= src_reg_31_21 src_reg_31_148)
                (= src_reg_31_22 src_reg_31_149)
                (= src_reg_31_23 src_reg_31_150)
                (= src_reg_31_24 src_reg_31_151)
                (= src_reg_31_25 src_reg_31_152)
                (= src_reg_31_26 src_reg_31_153)
                (= src_reg_31_27 src_reg_31_154)
                (= src_reg_31_28 src_reg_31_155)
                (= src_reg_31_29 src_reg_31_156)
                (= src_reg_31_30 src_reg_31_157)
                (= src_reg_31_31 src_reg_31_158)
                (= src_reg_31_32 src_reg_31_159)
                (= src_reg_31_33 src_reg_31_160)
                (= src_reg_31_34 src_reg_31_161)
                (= src_reg_31_35 src_reg_31_162)
                (= #x00000001 dst_reg_31_127)
                (= dst_reg_31_1 dst_reg_31_128)
                (= dst_reg_31_2 dst_reg_31_129)
                (= dst_reg_31_3 dst_reg_31_130)
                (= dst_reg_31_4 dst_reg_31_131)
                (= dst_reg_31_5 dst_reg_31_132)
                (= dst_reg_31_6 dst_reg_31_133)
                (= dst_reg_31_7 dst_reg_31_134)
                (= dst_reg_31_8 dst_reg_31_135)
                (= dst_reg_31_9 dst_reg_31_136)
                (= dst_reg_31_10 dst_reg_31_137)
                (= dst_reg_31_11 dst_reg_31_138)
                (= dst_reg_31_12 dst_reg_31_139)
                (= dst_reg_31_13 dst_reg_31_140)
                (= dst_reg_31_14 dst_reg_31_141)
                (= dst_reg_31_15 dst_reg_31_142)
                (= dst_reg_31_16 dst_reg_31_143)
                (= dst_reg_31_17 dst_reg_31_144)))
      (a!7 (=> (and (= cmp.not.i_31_106 #b1) (= narrow_31_103 #b0))
               (and (= #x00000001 i1.i_31_107)
                    (ite (= i1.i_31_107 #x00000001)
                         (= cmp2.not.i_31_109 #b1)
                         (= cmp2.not.i_31_109 #b0)))))
      (a!8 (=> (= narrow_31_103 #b0)
               (and (= #x00000001 i.i35_31_104)
                    (ite (= i.i35_31_104 #x00000001)
                         (= cmp.not.i_31_106 #b1)
                         (= cmp.not.i_31_106 #b0))))))
(let ((a!4 (and (=> (= narrow_31_103 #b1) a!3)
                (=> (and (= cmp.not.i_31_106 #b0) (= narrow_31_103 #b0)) a!3)
                (=> a!2 a!3)
                (=> a!1
                    (and (= i.i2_31_85 other_branch_src_reg_31_181)
                         (= other_branch_src_reg_31_55
                            other_branch_src_reg_31_182)
                         (= i21.i5_31_86 other_branch_src_reg_31_183)
                         (= i22.i8_31_87 other_branch_src_reg_31_184)
                         (= i23.i11_31_88 other_branch_src_reg_31_185)
                         (= i24.i14_31_89 other_branch_src_reg_31_186)
                         (= cond300.i495.i_31_126 other_branch_src_reg_31_187)
                         (= i26.i20_31_91 other_branch_src_reg_31_188)
                         (= i27.i23_31_92 other_branch_src_reg_31_189)
                         (= i28.i26_31_93 other_branch_src_reg_31_190)
                         (= i29.i29_31_94 other_branch_src_reg_31_191)
                         (= i30.i32_31_95 other_branch_src_reg_31_192)
                         (= other_branch_src_reg_31_66
                            other_branch_src_reg_31_193)
                         (= other_branch_src_reg_31_67
                            other_branch_src_reg_31_194)
                         (= other_branch_src_reg_31_68
                            other_branch_src_reg_31_195)
                         (= other_branch_src_reg_31_69
                            other_branch_src_reg_31_196)
                         (= other_branch_src_reg_31_70
                            other_branch_src_reg_31_197)
                         (= other_branch_src_reg_31_71
                            other_branch_src_reg_31_198)
                         (= i.i_31_74 other_branch_dst_reg_31_163)
                         (= other_branch_dst_reg_31_37
                            other_branch_dst_reg_31_164)
                         (= i21.i_31_75 other_branch_dst_reg_31_165)
                         (= i22.i_31_76 other_branch_dst_reg_31_166)
                         (= i23.i_31_77 other_branch_dst_reg_31_167)
                         (= i24.i_31_78 other_branch_dst_reg_31_168)
                         (= i25.i_31_79 other_branch_dst_reg_31_169)
                         (= cond290.i489.i_31_122 other_branch_dst_reg_31_170)
                         (= i27.i_31_81 other_branch_dst_reg_31_171)
                         (= i28.i_31_82 other_branch_dst_reg_31_172)
                         (= i29.i_31_83 other_branch_dst_reg_31_173)
                         (= i30.i_31_84 other_branch_dst_reg_31_174)
                         (= other_branch_dst_reg_31_48
                            other_branch_dst_reg_31_175)
                         (= other_branch_dst_reg_31_49
                            other_branch_dst_reg_31_176)
                         (= other_branch_dst_reg_31_50
                            other_branch_dst_reg_31_177)
                         (= other_branch_dst_reg_31_51
                            other_branch_dst_reg_31_178)
                         (= other_branch_dst_reg_31_52
                            other_branch_dst_reg_31_179)
                         (= other_branch_dst_reg_31_53
                            other_branch_dst_reg_31_180)
                         (= #x00000001 src_reg_31_145)
                         (= src_reg_31_19 src_reg_31_146)
                         (= src_reg_31_20 src_reg_31_147)
                         (= src_reg_31_21 src_reg_31_148)
                         (= src_reg_31_22 src_reg_31_149)
                         (= src_reg_31_23 src_reg_31_150)
                         (= src_reg_31_24 src_reg_31_151)
                         (= cond336.i.i_31_113 src_reg_31_152)
                         (= src_reg_31_26 src_reg_31_153)
                         (= src_reg_31_27 src_reg_31_154)
                         (= src_reg_31_28 src_reg_31_155)
                         (= src_reg_31_29 src_reg_31_156)
                         (= src_reg_31_30 src_reg_31_157)
                         (= src_reg_31_31 src_reg_31_158)
                         (= src_reg_31_32 src_reg_31_159)
                         (= src_reg_31_33 src_reg_31_160)
                         (= src_reg_31_34 src_reg_31_161)
                         (= src_reg_31_35 src_reg_31_162)
                         (= #x00000001 dst_reg_31_127)
                         (= dst_reg_31_1 dst_reg_31_128)
                         (= dst_reg_31_2 dst_reg_31_129)
                         (= dst_reg_31_3 dst_reg_31_130)
                         (= dst_reg_31_4 dst_reg_31_131)
                         (= dst_reg_31_5 dst_reg_31_132)
                         (= cond347.i.i_31_118 dst_reg_31_133)
                         (= dst_reg_31_7 dst_reg_31_134)
                         (= dst_reg_31_8 dst_reg_31_135)
                         (= dst_reg_31_9 dst_reg_31_136)
                         (= dst_reg_31_10 dst_reg_31_137)
                         (= dst_reg_31_11 dst_reg_31_138)
                         (= dst_reg_31_12 dst_reg_31_139)
                         (= dst_reg_31_13 dst_reg_31_140)
                         (= dst_reg_31_14 dst_reg_31_141)
                         (= dst_reg_31_15 dst_reg_31_142)
                         (= dst_reg_31_16 dst_reg_31_143)
                         (= dst_reg_31_17 dst_reg_31_144)))
                (= dst_reg_31_127 dst_reg_31_199)
                (= dst_reg_31_128 dst_reg_31_200)
                (= dst_reg_31_129 dst_reg_31_201)
                (= dst_reg_31_130 dst_reg_31_202)
                (= dst_reg_31_131 dst_reg_31_203)
                (= dst_reg_31_132 dst_reg_31_204)
                (= dst_reg_31_133 dst_reg_31_205)
                (= dst_reg_31_134 dst_reg_31_206)
                (= dst_reg_31_135 dst_reg_31_207)
                (= dst_reg_31_136 dst_reg_31_208)
                (= dst_reg_31_137 dst_reg_31_209)
                (= dst_reg_31_138 dst_reg_31_210)
                (= dst_reg_31_139 dst_reg_31_211)
                (= dst_reg_31_140 dst_reg_31_212)
                (= dst_reg_31_141 dst_reg_31_213)
                (= dst_reg_31_142 dst_reg_31_214)
                (= dst_reg_31_143 dst_reg_31_215)
                (= dst_reg_31_144 dst_reg_31_216)
                (= src_reg_31_145 src_reg_31_217)
                (= src_reg_31_146 src_reg_31_218)
                (= src_reg_31_147 src_reg_31_219)
                (= src_reg_31_148 src_reg_31_220)
                (= src_reg_31_149 src_reg_31_221)
                (= src_reg_31_150 src_reg_31_222)
                (= src_reg_31_151 src_reg_31_223)
                (= src_reg_31_152 src_reg_31_224)
                (= src_reg_31_153 src_reg_31_225)
                (= src_reg_31_154 src_reg_31_226)
                (= src_reg_31_155 src_reg_31_227)
                (= src_reg_31_156 src_reg_31_228)
                (= src_reg_31_157 src_reg_31_229)
                (= src_reg_31_158 src_reg_31_230)
                (= src_reg_31_159 src_reg_31_231)
                (= src_reg_31_160 src_reg_31_232)
                (= src_reg_31_161 src_reg_31_233)
                (= src_reg_31_162 src_reg_31_234)
                (= other_branch_dst_reg_31_163 other_branch_dst_reg_31_235)
                (= other_branch_dst_reg_31_164 other_branch_dst_reg_31_236)
                (= other_branch_dst_reg_31_165 other_branch_dst_reg_31_237)
                (= other_branch_dst_reg_31_166 other_branch_dst_reg_31_238)
                (= other_branch_dst_reg_31_167 other_branch_dst_reg_31_239)
                (= other_branch_dst_reg_31_168 other_branch_dst_reg_31_240)
                (= other_branch_dst_reg_31_169 other_branch_dst_reg_31_241)
                (= other_branch_dst_reg_31_170 other_branch_dst_reg_31_242)
                (= other_branch_dst_reg_31_171 other_branch_dst_reg_31_243)
                (= other_branch_dst_reg_31_172 other_branch_dst_reg_31_244)
                (= other_branch_dst_reg_31_173 other_branch_dst_reg_31_245)
                (= other_branch_dst_reg_31_174 other_branch_dst_reg_31_246)
                (= other_branch_dst_reg_31_175 other_branch_dst_reg_31_247)
                (= other_branch_dst_reg_31_176 other_branch_dst_reg_31_248)
                (= other_branch_dst_reg_31_177 other_branch_dst_reg_31_249)
                (= other_branch_dst_reg_31_178 other_branch_dst_reg_31_250)
                (= other_branch_dst_reg_31_179 other_branch_dst_reg_31_251)
                (= other_branch_dst_reg_31_180 other_branch_dst_reg_31_252)
                (= other_branch_src_reg_31_181 other_branch_src_reg_31_253)
                (= other_branch_src_reg_31_182 other_branch_src_reg_31_254)
                (= other_branch_src_reg_31_183 other_branch_src_reg_31_255)
                (= other_branch_src_reg_31_184 other_branch_src_reg_31_256)
                (= other_branch_src_reg_31_185 other_branch_src_reg_31_257)
                (= other_branch_src_reg_31_186 other_branch_src_reg_31_258)
                (= other_branch_src_reg_31_187 other_branch_src_reg_31_259)
                (= other_branch_src_reg_31_188 other_branch_src_reg_31_260)
                (= other_branch_src_reg_31_189 other_branch_src_reg_31_261)
                (= other_branch_src_reg_31_190 other_branch_src_reg_31_262)
                (= other_branch_src_reg_31_191 other_branch_src_reg_31_263)
                (= other_branch_src_reg_31_192 other_branch_src_reg_31_264)
                (= other_branch_src_reg_31_193 other_branch_src_reg_31_265)
                (= other_branch_src_reg_31_194 other_branch_src_reg_31_266)
                (= other_branch_src_reg_31_195 other_branch_src_reg_31_267)
                (= other_branch_src_reg_31_196 other_branch_src_reg_31_268)
                (= other_branch_src_reg_31_197 other_branch_src_reg_31_269)
                (= other_branch_src_reg_31_198 other_branch_src_reg_31_270)))
      (a!6 (=> a!1
               (and (= sub329.i.i_31_111
                       (bvadd i135.i.i_31_97 #xffffffffffffffff))
                    (ite (bvult i143.i.i_31_99 sub329.i.i_31_111)
                         (= cmp331.i.i_31_112 #b1)
                         (= cmp331.i.i_31_112 #b0))
                    (ite (= cmp331.i.i_31_112 #b1)
                         (= cond336.i.i_31_113 i143.i.i_31_99)
                         (= cond336.i.i_31_113 sub329.i.i_31_111))
                    (= add339.i.i_31_115
                       (bvadd i141.i.i_31_98 #x0000000000000001))
                    (= dst_reg_31_6 i361.i.i_31_116)
                    (ite (bvugt add339.i.i_31_115 i361.i.i_31_116)
                         (= cmp342.i.i_31_117 #b1)
                         (= cmp342.i.i_31_117 #b0))
                    (ite (= cmp342.i.i_31_117 #b1)
                         (= cond347.i.i_31_118 add339.i.i_31_115)
                         (= cond347.i.i_31_118 i361.i.i_31_116))
                    (= i26.i_31_80 i350.i485.i_31_119)
                    (= i26.i20_31_91 i351.i487.i_31_120)
                    (ite (bvult i350.i485.i_31_119 i351.i487.i_31_120)
                         (= cmp285.i488.i_31_121 #b1)
                         (= cmp285.i488.i_31_121 #b0))
                    (ite (= cmp285.i488.i_31_121 #b1)
                         (= cond290.i489.i_31_122 i350.i485.i_31_119)
                         (= cond290.i489.i_31_122 i351.i487.i_31_120))
                    (= i25.i_31_79 i352.i491.i_31_123)
                    (= i25.i17_31_90 i353.i493.i_31_124)
                    (ite (bvugt i352.i491.i_31_123 i353.i493.i_31_124)
                         (= cmp295.i494.i_31_125 #b1)
                         (= cmp295.i494.i_31_125 #b0))
                    (ite (= cmp295.i494.i_31_125 #b1)
                         (= cond300.i495.i_31_126 i352.i491.i_31_123)
                         (= cond300.i495.i_31_126 i353.i493.i_31_124))))))
(let ((a!5 (=> (or a!1
                   a!2
                   (and (= cmp.not.i_31_106 #b0) (= narrow_31_103 #b0))
                   (= narrow_31_103 #b1))
               a!4)))
  (and a!5
       a!6
       a!7
       a!8
       (= dst_reg_31_0 dst_reg_31_0)
       (= dst_reg_31_1 dst_reg_31_1)
       (= dst_reg_31_2 dst_reg_31_2)
       (= dst_reg_31_3 dst_reg_31_3)
       (= dst_reg_31_4 dst_reg_31_4)
       (= dst_reg_31_5 dst_reg_31_5)
       (= dst_reg_31_6 dst_reg_31_6)
       (= dst_reg_31_7 dst_reg_31_7)
       (= dst_reg_31_8 dst_reg_31_8)
       (= dst_reg_31_9 dst_reg_31_9)
       (= dst_reg_31_10 dst_reg_31_10)
       (= dst_reg_31_11 dst_reg_31_11)
       (= dst_reg_31_12 dst_reg_31_12)
       (= dst_reg_31_13 dst_reg_31_13)
       (= dst_reg_31_14 dst_reg_31_14)
       (= dst_reg_31_15 dst_reg_31_15)
       (= dst_reg_31_16 dst_reg_31_16)
       (= dst_reg_31_17 dst_reg_31_17)
       (= src_reg_31_18 src_reg_31_18)
       (= src_reg_31_19 src_reg_31_19)
       (= src_reg_31_20 src_reg_31_20)
       (= src_reg_31_21 src_reg_31_21)
       (= src_reg_31_22 src_reg_31_22)
       (= src_reg_31_23 src_reg_31_23)
       (= src_reg_31_24 src_reg_31_24)
       (= src_reg_31_25 src_reg_31_25)
       (= src_reg_31_26 src_reg_31_26)
       (= src_reg_31_27 src_reg_31_27)
       (= src_reg_31_28 src_reg_31_28)
       (= src_reg_31_29 src_reg_31_29)
       (= src_reg_31_30 src_reg_31_30)
       (= src_reg_31_31 src_reg_31_31)
       (= src_reg_31_32 src_reg_31_32)
       (= src_reg_31_33 src_reg_31_33)
       (= src_reg_31_34 src_reg_31_34)
       (= src_reg_31_35 src_reg_31_35)
       (= other_branch_dst_reg_31_36 other_branch_dst_reg_31_36)
       (= other_branch_dst_reg_31_37 other_branch_dst_reg_31_37)
       (= other_branch_dst_reg_31_38 other_branch_dst_reg_31_38)
       (= other_branch_dst_reg_31_39 other_branch_dst_reg_31_39)
       (= other_branch_dst_reg_31_40 other_branch_dst_reg_31_40)
       (= other_branch_dst_reg_31_41 other_branch_dst_reg_31_41)
       (= other_branch_dst_reg_31_42 other_branch_dst_reg_31_42)
       (= other_branch_dst_reg_31_43 other_branch_dst_reg_31_43)
       (= other_branch_dst_reg_31_44 other_branch_dst_reg_31_44)
       (= other_branch_dst_reg_31_45 other_branch_dst_reg_31_45)
       (= other_branch_dst_reg_31_46 other_branch_dst_reg_31_46)
       (= other_branch_dst_reg_31_47 other_branch_dst_reg_31_47)
       (= other_branch_dst_reg_31_48 other_branch_dst_reg_31_48)
       (= other_branch_dst_reg_31_49 other_branch_dst_reg_31_49)
       (= other_branch_dst_reg_31_50 other_branch_dst_reg_31_50)
       (= other_branch_dst_reg_31_51 other_branch_dst_reg_31_51)
       (= other_branch_dst_reg_31_52 other_branch_dst_reg_31_52)
       (= other_branch_dst_reg_31_53 other_branch_dst_reg_31_53)
       (= other_branch_src_reg_31_54 other_branch_src_reg_31_54)
       (= other_branch_src_reg_31_55 other_branch_src_reg_31_55)
       (= other_branch_src_reg_31_56 other_branch_src_reg_31_56)
       (= other_branch_src_reg_31_57 other_branch_src_reg_31_57)
       (= other_branch_src_reg_31_58 other_branch_src_reg_31_58)
       (= other_branch_src_reg_31_59 other_branch_src_reg_31_59)
       (= other_branch_src_reg_31_60 other_branch_src_reg_31_60)
       (= other_branch_src_reg_31_61 other_branch_src_reg_31_61)
       (= other_branch_src_reg_31_62 other_branch_src_reg_31_62)
       (= other_branch_src_reg_31_63 other_branch_src_reg_31_63)
       (= other_branch_src_reg_31_64 other_branch_src_reg_31_64)
       (= other_branch_src_reg_31_65 other_branch_src_reg_31_65)
       (= other_branch_src_reg_31_66 other_branch_src_reg_31_66)
       (= other_branch_src_reg_31_67 other_branch_src_reg_31_67)
       (= other_branch_src_reg_31_68 other_branch_src_reg_31_68)
       (= other_branch_src_reg_31_69 other_branch_src_reg_31_69)
       (= other_branch_src_reg_31_70 other_branch_src_reg_31_70)
       (= other_branch_src_reg_31_71 other_branch_src_reg_31_71)
       (= #x00000001 i.i_31_74)
       (= dst_reg_31_2 i21.i_31_75)
       (= dst_reg_31_3 i22.i_31_76)
       (= dst_reg_31_4 i23.i_31_77)
       (= dst_reg_31_5 i24.i_31_78)
       (= dst_reg_31_6 i25.i_31_79)
       (= dst_reg_31_7 i26.i_31_80)
       (= dst_reg_31_8 i27.i_31_81)
       (= dst_reg_31_9 i28.i_31_82)
       (= dst_reg_31_10 i29.i_31_83)
       (= dst_reg_31_11 i30.i_31_84)
       (= #x00000001 i.i2_31_85)
       (= src_reg_31_20 i21.i5_31_86)
       (= src_reg_31_21 i22.i8_31_87)
       (= src_reg_31_22 i23.i11_31_88)
       (= src_reg_31_23 i24.i14_31_89)
       (= src_reg_31_24 i25.i17_31_90)
       (= src_reg_31_25 i26.i20_31_91)
       (= src_reg_31_26 i27.i23_31_92)
       (= src_reg_31_27 i28.i26_31_93)
       (= src_reg_31_28 i29.i29_31_94)
       (= src_reg_31_29 i30.i32_31_95)
       (= dst_reg_31_6 i133.i.i_31_96)
       (= dst_reg_31_7 i135.i.i_31_97)
       (= src_reg_31_24 i141.i.i_31_98)
       (= src_reg_31_25 i143.i.i_31_99)
       (ite (bvule i135.i.i_31_97 i141.i.i_31_98)
            (= cmp251.not.i.i_31_100 #b1)
            (= cmp251.not.i.i_31_100 #b0))
       (ite (bvugt i133.i.i_31_96 i143.i.i_31_99)
            (= cmp255.i.i_31_101 #b1)
            (= cmp255.i.i_31_101 #b0))
       (ite (= cmp251.not.i.i_31_100 #b1)
            (= narrow_31_103 #b1)
            (= narrow_31_103 cmp255.i.i_31_101)))))))

;{"dst_reg":["dst_reg_31_0","dst_reg_31_1",[""],["dst_reg_31_2","dst_reg_31_3"],"dst_reg_31_4","dst_reg_31_5","dst_reg_31_6","dst_reg_31_7","dst_reg_31_8","dst_reg_31_9","dst_reg_31_10","dst_reg_31_11","dst_reg_31_12","dst_reg_31_13","","","dst_reg_31_14","dst_reg_31_15","dst_reg_31_16"],"other_branch_dst_reg":["other_branch_dst_reg_31_36","other_branch_dst_reg_31_37",[""],["other_branch_dst_reg_31_38","other_branch_dst_reg_31_39"],"other_branch_dst_reg_31_40","other_branch_dst_reg_31_41","other_branch_dst_reg_31_42","other_branch_dst_reg_31_43","other_branch_dst_reg_31_44","other_branch_dst_reg_31_45","other_branch_dst_reg_31_46","other_branch_dst_reg_31_47","other_branch_dst_reg_31_48","other_branch_dst_reg_31_49","","","other_branch_dst_reg_31_50","other_branch_dst_reg_31_51","other_branch_dst_reg_31_52"],"other_branch_src_reg":["other_branch_src_reg_31_54","other_branch_src_reg_31_55",[""],["other_branch_src_reg_31_56","other_branch_src_reg_31_57"],"other_branch_src_reg_31_58","other_branch_src_reg_31_59","other_branch_src_reg_31_60","other_branch_src_reg_31_61","other_branch_src_reg_31_62","other_branch_src_reg_31_63","other_branch_src_reg_31_64","other_branch_src_reg_31_65","other_branch_src_reg_31_66","other_branch_src_reg_31_67","","","other_branch_src_reg_31_68","other_branch_src_reg_31_69","other_branch_src_reg_31_70"],"src_reg":["src_reg_31_18","src_reg_31_19",[""],["src_reg_31_20","src_reg_31_21"],"src_reg_31_22","src_reg_31_23","src_reg_31_24","src_reg_31_25","src_reg_31_26","src_reg_31_27","src_reg_31_28","src_reg_31_29","src_reg_31_30","src_reg_31_31","","","src_reg_31_32","src_reg_31_33","src_reg_31_34"]}
;{"dst_reg":["dst_reg_31_199","dst_reg_31_200",[""],["dst_reg_31_201","dst_reg_31_202"],"dst_reg_31_203","dst_reg_31_204","dst_reg_31_205","dst_reg_31_206","dst_reg_31_207","dst_reg_31_208","dst_reg_31_209","dst_reg_31_210","dst_reg_31_211","dst_reg_31_212","","","dst_reg_31_213","dst_reg_31_214","dst_reg_31_215"],"other_branch_dst_reg":["other_branch_dst_reg_31_235","other_branch_dst_reg_31_236",[""],["other_branch_dst_reg_31_237","other_branch_dst_reg_31_238"],"other_branch_dst_reg_31_239","other_branch_dst_reg_31_240","other_branch_dst_reg_31_241","other_branch_dst_reg_31_242","other_branch_dst_reg_31_243","other_branch_dst_reg_31_244","other_branch_dst_reg_31_245","other_branch_dst_reg_31_246","other_branch_dst_reg_31_247","other_branch_dst_reg_31_248","","","other_branch_dst_reg_31_249","other_branch_dst_reg_31_250","other_branch_dst_reg_31_251"],"other_branch_src_reg":["other_branch_src_reg_31_253","other_branch_src_reg_31_254",[""],["other_branch_src_reg_31_255","other_branch_src_reg_31_256"],"other_branch_src_reg_31_257","other_branch_src_reg_31_258","other_branch_src_reg_31_259","other_branch_src_reg_31_260","other_branch_src_reg_31_261","other_branch_src_reg_31_262","other_branch_src_reg_31_263","other_branch_src_reg_31_264","other_branch_src_reg_31_265","other_branch_src_reg_31_266","","","other_branch_src_reg_31_267","other_branch_src_reg_31_268","other_branch_src_reg_31_269"],"src_reg":["src_reg_31_217","src_reg_31_218",[""],["src_reg_31_219","src_reg_31_220"],"src_reg_31_221","src_reg_31_222","src_reg_31_223","src_reg_31_224","src_reg_31_225","src_reg_31_226","src_reg_31_227","src_reg_31_228","src_reg_31_229","src_reg_31_230","","","src_reg_31_231","src_reg_31_232","src_reg_31_233"]}
